NAME : MM16_depots
COMMENT : Instance 16 in MD algorithm. Coordinates of depots and vhcl speeds given.
TYPE : TSP
DIMENSION : 20
EDGE_WEIGHT_TYPE : ATT
NODE_COORD_SECTION
501 30.5941 53.0751 1
502 71.2459 75.9094 1
503 49.7526 30.0855 1
504 6.4983 56.9495 1
505 8.5534 0.6741 1
506 23.0418 72.7248 1
507 86.8254 98.0680 1
508 15.3820 92.0042 1
509 92.9129 43.1917 1
510 33.9653 46.9081 1
511 4.1665 31.9300 1
512 5.1632 3.3848 1
513 68.2048 78.9141 1
514 89.3803 93.3408 1
515 90.3510 8.5425 1
516 6.9326 91.7872 1
517 78.5355 47.5713 1
518 23.3435 77.3246 1
519 33.8876 78.3497 1
520 77.7837 3.7876 1
EOF
